NAME: clu_20_2
TYPE: TSP
DIMENSION: 20
EDGE_WEIGHT_TYPE: EUC_2D
NODE_COORD_SECTION
1 100 21
2 38 11
3 101 26
4 20 13
5 101 17
6 6 17
7 85 10
8 81 22
9 -8 -11
10 94 33
11 103 1
12 93 19
13 86 107
14 -4 9
15 8 15
16 89 10
17 102 30
18 28 13
19 87 80
20 22 15
EOF
